; benchmark generated from python API
(set-info :status unknown)
(declare-fun R () (_ BitVec 32))
(declare-fun rdi () (_ BitVec 32))
(assert
 (let (($x310 (= (_ bv0 32) R)))
 (let ((?x6 ((_ extract 31 0) rdi)))
 (let (($x11 (bvsge (_ bv17 32) ?x6)))
 (let (($x306 (and $x11 $x310)))
 (let (($x41 (bvslt (_ bv17 32) ?x6)))
 (let (($x162 (bvslt (_ bv21 32) ?x6)))
 (let (($x309 (and $x162 $x41 $x310)))
 (let (($x324 (= (_ bv4294966936 32) R)))
 (let (($x45 (bvsge (_ bv21 32) ?x6)))
 (let (($x205 (bvsle (_ bv1 32) ?x6)))
 (let (($x187 (bvsle (_ bv2 32) ?x6)))
 (let (($x32 (bvsle (_ bv3 32) ?x6)))
 (let (($x209 (bvsle (_ bv4 32) ?x6)))
 (let (($x40 (bvsle (_ bv5 32) ?x6)))
 (let (($x221 (bvsle (_ bv6 32) ?x6)))
 (let (($x224 (bvsle (_ bv7 32) ?x6)))
 (let (($x229 (bvsle (_ bv8 32) ?x6)))
 (let (($x227 (bvsle (_ bv9 32) ?x6)))
 (let (($x237 (bvsle (_ bv10 32) ?x6)))
 (let (($x234 (bvsle (_ bv11 32) ?x6)))
 (let (($x246 (bvsle (_ bv12 32) ?x6)))
 (let (($x250 (bvsle (_ bv13 32) ?x6)))
 (let (($x254 (bvsle (_ bv14 32) ?x6)))
 (let (($x259 (bvsle (_ bv15 32) ?x6)))
 (let (($x265 (bvsle (_ bv16 32) ?x6)))
 (let (($x264 (bvsle (_ bv17 32) ?x6)))
 (let (($x277 (bvsle (_ bv18 32) ?x6)))
 (let (($x288 (bvsgt (_ bv19 32) ?x6)))
 (let (($x325 (and $x288 $x277 $x264 $x265 $x259 $x254 $x250 $x246 $x234 $x237 $x227 $x229 $x224 $x221 $x40 $x209 $x32 $x187 $x205 $x45 $x41 $x324)))
 (let (($x321 (= (_ bv4294966916 32) R)))
 (let (($x278 (bvsle (_ bv19 32) ?x6)))
 (let (($x298 (bvsgt (_ bv20 32) ?x6)))
 (let (($x322 (and $x298 $x278 $x277 $x264 $x265 $x259 $x254 $x250 $x246 $x234 $x237 $x227 $x229 $x224 $x221 $x40 $x209 $x32 $x187 $x205 $x45 $x41 $x321)))
 (let (($x318 (= (_ bv4294966896 32) R)))
 (let (($x220 (bvsle (_ bv20 32) ?x6)))
 (let (($x305 (bvsgt (_ bv21 32) ?x6)))
 (let (($x319 (and $x305 $x220 $x278 $x277 $x264 $x265 $x259 $x254 $x250 $x246 $x234 $x237 $x227 $x229 $x224 $x221 $x40 $x209 $x32 $x187 $x205 $x45 $x41 $x318)))
 (let (($x308 (= (_ bv4294966876 32) R)))
 (let (($x296 (bvsle (_ bv21 32) ?x6)))
 (let (($x312 (bvsgt (_ bv22 32) ?x6)))
 (let (($x307 (and $x312 $x296 $x220 $x278 $x277 $x264 $x265 $x259 $x254 $x250 $x246 $x234 $x237 $x227 $x229 $x224 $x221 $x40 $x209 $x32 $x187 $x205 $x45 $x41 $x308)))
 (let (($x326 (or $x307 $x319 $x322 $x325 $x309 $x306)))
 (let ((?x201 (bvmul (_ bv20 32) ?x6)))
 (let (($x315 (= R ?x201)))
 (let (($x314 (and $x45 $x41 $x315)))
 (let (($x304 (or $x314 $x309 $x306)))
 (and $x304 $x326))))))))))))))))))))))))))))))))))))))))))))))))
(check-sat)

